N = 720;
M = 1780;
Edge_Start = [1, 1, 3, 4, 5, 6, 7, 7, 9, 9, 10, 11, 11, 12, 13, 14, 15, 15, 16, 17, 18, 19, 19, 20, 21, 22, 23, 23, 24, 25, 25, 26, 27, 28, 29, 29, 30, 31, 31, 32, 33, 33, 34, 35, 35, 36, 37, 38, 39, 39, 40, 41, 41, 42, 43, 43, 44, 45, 45, 46, 47, 47, 49, 49, 50, 51, 51, 52, 53, 53, 54, 55, 55, 57, 57, 58, 59, 59, 60, 61, 61, 63, 63, 64, 65, 66, 67, 67, 68, 69, 69, 71, 71, 73, 74, 75, 76, 76, 77, 78, 78, 79, 80, 81, 82, 83, 84, 85, 86, 86, 87, 88, 88, 89, 90, 90, 91, 92, 92, 93, 94, 94, 96, 96, 97, 98, 98, 99, 100, 101, 102, 103, 104, 105, 106, 106, 107, 108, 108, 109, 110, 111, 112, 114, 115, 116, 117, 117, 118, 119, 119, 120, 121, 121, 122, 123, 123, 125, 126, 127, 128, 129, 129, 130, 131, 131, 132, 133, 133, 134, 135, 135, 136, 137, 137, 138, 139, 139, 140, 141, 142, 143, 144, 145, 145, 146, 147, 147, 148, 150, 151, 152, 152, 153, 154, 154, 155, 156, 156, 157, 158, 158, 159, 160, 160, 161, 162, 162, 163, 164, 164, 165, 166, 166, 167, 168, 168, 169, 170, 171, 172, 172, 173, 174, 174, 175, 176, 176, 177, 178, 178, 179, 180, 181, 182, 183, 184, 184, 185, 186, 186, 188, 188, 191, 191, 193, 193, 194, 195, 195, 196, 197, 197, 198, 199, 199, 200, 201, 201, 202, 203, 203, 204, 206, 207, 207, 208, 209, 209, 211, 212, 213, 213, 214, 215, 215, 216, 217, 219, 219, 220, 221, 222, 223, 224, 225, 225, 226, 227, 228, 228, 229, 230, 230, 231, 232, 232, 233, 234, 234, 235, 236, 236, 237, 238, 238, 239, 240, 240, 241, 242, 242, 243, 244, 244, 246, 247, 248, 248, 249, 250, 250, 252, 252, 254, 254, 255, 256, 256, 257, 258, 258, 259, 260, 260, 261, 262, 262, 263, 264, 267, 268, 269, 269, 270, 271, 271, 272, 273, 273, 274, 275, 275, 276, 277, 278, 279, 279, 281, 281, 282, 283, 283, 284, 285, 285, 287, 287, 288, 289, 289, 290, 291, 292, 293, 293, 295, 295, 296, 297, 298, 299, 299, 301, 301, 302, 303, 304, 304, 305, 306, 307, 308, 308, 310, 311, 312, 312, 313, 314, 314, 315, 316, 316, 317, 318, 318, 319, 320, 321, 322, 322, 323, 324, 324, 326, 328, 328, 329, 330, 331, 332, 332, 333, 334, 335, 336, 338, 338, 340, 340, 342, 343, 343, 345, 345, 346, 347, 348, 349, 349, 350, 351, 352, 353, 353, 354, 355, 355, 356, 357, 357, 358, 359, 359, 360, 361, 361, 362, 363, 363, 364, 365, 365, 366, 367, 367, 369, 370, 371, 371, 372, 373, 374, 375, 375, 376, 377, 377, 378, 379, 380, 381, 382, 383, 384, 384, 385, 386, 387, 388, 389, 390, 390, 392, 392, 393, 394, 394, 396, 397, 398, 398, 400, 401, 402, 403, 404, 404, 405, 406, 406, 407, 408, 408, 409, 410, 410, 411, 412, 412, 413, 414, 415, 416, 418, 419, 420, 421, 422, 423, 423, 424, 426, 427, 427, 428, 429, 429, 431, 433, 433, 434, 435, 435, 436, 437, 438, 439, 440, 441, 442, 443, 443, 445, 447, 447, 448, 449, 449, 450, 451, 451, 452, 453, 454, 455, 456, 456, 457, 458, 458, 460, 461, 462, 462, 463, 464, 465, 466, 467, 468, 468, 469, 470, 471, 472, 472, 473, 474, 475, 476, 476, 477, 478, 479, 480, 480, 481, 482, 483, 484, 485, 486, 486, 487, 488, 488, 489, 490, 490, 491, 492, 495, 496, 497, 497, 498, 499, 499, 500, 501, 501, 502, 503, 503, 504, 505, 507, 507, 508, 509, 509, 511, 511, 512, 513, 514, 515, 515, 516, 517, 517, 518, 519, 519, 520, 521, 522, 523, 523, 525, 525, 526, 527, 527, 528, 529, 529, 530, 531, 532, 532, 533, 534, 534, 535, 536, 536, 537, 538, 539, 540, 540, 541, 542, 542, 543, 544, 544, 545, 546, 546, 547, 548, 548, 549, 550, 551, 552, 552, 553, 554, 554, 555, 556, 557, 558, 558, 559, 560, 560, 561, 562, 562, 563, 564, 565, 566, 566, 567, 568, 568, 570, 571, 571, 572, 573, 573, 574, 575, 576, 577, 578, 579, 580, 581, 581, 582, 583, 583, 584, 585, 585, 586, 587, 587, 588, 589, 589, 591, 591, 593, 593, 594, 595, 596, 597, 597, 598, 599, 600, 601, 601, 602, 603, 604, 605, 605, 606, 607, 608, 608, 609, 610, 610, 611, 612, 612, 613, 614, 615, 616, 616, 617, 618, 619, 620, 620, 621, 622, 622, 624, 624, 626, 626, 627, 628, 628, 629, 630, 631, 632, 633, 634, 635, 636, 636, 637, 638, 638, 639, 640, 640, 642, 642, 643, 644, 644, 646, 647, 647, 648, 649, 649, 650, 651, 651, 652, 653, 653, 654, 655, 656, 657, 657, 658, 659, 660, 661, 661, 662, 663, 664, 665, 665, 666, 667, 667, 668, 669, 669, 670, 671, 671, 672, 673, 673, 674, 675, 675, 676, 678, 679, 679, 680, 681, 681, 682, 683, 684, 686, 687, 688, 689, 690, 692, 693, 695, 697, 698, 699, 700, 701, 702, 703, 704, 705, 706, 707, 708, 709, 710, 711, 712, 713, 714, 716, 718, 719, 2, 38, 4, 5, 42, 7, 8, 44, 10, 46, 11, 12, 48, 13, 50, 15, 16, 52, 17, 54, 19, 20, 56, 21, 22, 23, 24, 60, 25, 26, 62, 27, 64, 29, 30, 66, 31, 32, 68, 33, 34, 70, 35, 36, 72, 37, 74, 39, 40, 77, 41, 42, 79, 43, 44, 81, 45, 46, 83, 47, 48, 85, 50, 87, 51, 52, 89, 53, 54, 91, 55, 56, 93, 58, 95, 59, 60, 97, 61, 62, 99, 64, 101, 65, 66, 67, 68, 105, 69, 70, 107, 72, 109, 111, 75, 113, 77, 114, 78, 79, 116, 80, 118, 82, 120, 84, 122, 86, 87, 124, 88, 89, 126, 90, 91, 128, 92, 93, 130, 94, 95, 132, 97, 134, 98, 99, 136, 100, 138, 102, 140, 104, 105, 106, 107, 144, 108, 109, 146, 110, 111, 112, 113, 115, 116, 117, 118, 155, 119, 120, 157, 121, 122, 159, 123, 124, 161, 163, 127, 165, 129, 130, 167, 131, 132, 169, 133, 134, 171, 135, 136, 173, 137, 138, 175, 139, 140, 177, 141, 142, 143, 181, 145, 146, 183, 147, 148, 185, 149, 151, 189, 153, 190, 154, 155, 192, 156, 157, 194, 158, 159, 196, 160, 161, 198, 162, 163, 200, 164, 165, 202, 166, 167, 204, 168, 169, 206, 170, 171, 172, 173, 210, 174, 175, 212, 176, 177, 214, 178, 179, 216, 180, 218, 182, 183, 184, 185, 222, 186, 187, 224, 189, 226, 192, 229, 194, 231, 195, 196, 233, 197, 198, 235, 199, 200, 237, 201, 202, 239, 203, 204, 241, 205, 207, 208, 245, 209, 210, 247, 249, 213, 214, 251, 215, 216, 253, 217, 255, 220, 257, 221, 222, 223, 224, 225, 226, 263, 227, 265, 229, 266, 230, 231, 268, 232, 233, 270, 234, 235, 272, 236, 237, 274, 238, 239, 276, 240, 241, 278, 242, 243, 280, 244, 245, 282, 284, 248, 249, 286, 250, 251, 288, 253, 290, 255, 292, 256, 257, 294, 258, 259, 296, 260, 261, 298, 262, 263, 300, 264, 302, 268, 269, 270, 307, 271, 272, 309, 273, 274, 311, 275, 276, 313, 277, 278, 279, 280, 317, 282, 319, 283, 284, 321, 285, 286, 323, 288, 325, 289, 290, 327, 291, 329, 293, 294, 331, 296, 333, 297, 298, 299, 300, 337, 302, 339, 303, 341, 305, 342, 306, 344, 308, 309, 346, 348, 312, 313, 350, 314, 315, 352, 316, 317, 354, 318, 319, 356, 320, 358, 322, 323, 360, 324, 325, 362, 364, 329, 366, 330, 331, 332, 333, 370, 334, 372, 336, 337, 339, 376, 341, 378, 343, 344, 381, 346, 383, 347, 385, 349, 350, 387, 351, 352, 353, 354, 391, 355, 356, 393, 357, 358, 395, 359, 360, 397, 361, 362, 399, 363, 364, 401, 365, 366, 403, 367, 368, 405, 370, 371, 372, 409, 373, 374, 375, 376, 413, 377, 378, 415, 379, 417, 418, 382, 420, 384, 385, 422, 386, 424, 388, 426, 390, 391, 428, 393, 430, 394, 395, 432, 434, 398, 399, 436, 401, 402, 403, 404, 405, 442, 406, 407, 444, 408, 409, 446, 410, 411, 448, 412, 413, 450, 414, 452, 416, 454, 419, 457, 421, 459, 423, 424, 461, 425, 427, 428, 465, 429, 430, 467, 469, 434, 471, 435, 436, 473, 437, 438, 439, 440, 441, 479, 443, 444, 481, 446, 448, 485, 449, 450, 487, 451, 452, 489, 453, 491, 455, 493, 457, 494, 458, 459, 496, 461, 462, 463, 500, 464, 502, 466, 504, 468, 469, 506, 470, 508, 472, 473, 510, 474, 512, 476, 477, 514, 478, 516, 480, 481, 518, 482, 483, 484, 485, 486, 487, 524, 488, 489, 526, 490, 491, 528, 492, 493, 496, 497, 498, 535, 499, 500, 537, 501, 502, 539, 503, 504, 541, 505, 543, 508, 545, 509, 510, 547, 512, 549, 513, 551, 515, 516, 553, 517, 518, 555, 519, 520, 557, 521, 559, 523, 524, 561, 526, 563, 527, 528, 565, 529, 530, 567, 531, 569, 533, 570, 534, 535, 572, 536, 537, 574, 538, 576, 540, 541, 578, 542, 543, 580, 544, 545, 582, 546, 547, 584, 548, 549, 586, 550, 551, 552, 553, 590, 554, 555, 592, 556, 557, 558, 559, 596, 560, 561, 598, 562, 563, 600, 564, 602, 566, 567, 604, 568, 569, 606, 571, 572, 609, 573, 574, 611, 575, 576, 577, 578, 579, 580, 581, 582, 619, 583, 584, 621, 585, 586, 623, 587, 588, 625, 589, 590, 627, 592, 629, 594, 631, 595, 596, 597, 598, 635, 599, 600, 601, 602, 639, 603, 604, 605, 606, 643, 607, 645, 609, 646, 610, 611, 648, 612, 613, 650, 614, 615, 616, 617, 654, 618, 619, 620, 621, 658, 622, 623, 660, 625, 662, 627, 664, 628, 629, 666, 630, 668, 632, 633, 634, 672, 636, 637, 674, 638, 639, 676, 640, 641, 678, 643, 680, 644, 645, 682, 647, 648, 684, 649, 650, 686, 651, 652, 688, 653, 654, 690, 655, 692, 657, 658, 694, 659, 696, 661, 662, 698, 663, 700, 665, 666, 702, 667, 668, 704, 669, 670, 706, 671, 672, 708, 673, 674, 710, 675, 676, 712, 677, 679, 680, 716, 681, 682, 718, 683, 720, 685, 687, 688, 689, 690, 691, 693, 694, 696, 698, 699, 700, 701, 702, 703, 704, 705, 706, 707, 708, 709, 710, 711, 712, 713, 714, 715, 717, 719, 720];
Edge_End = [2, 38, 4, 5, 42, 7, 8, 44, 10, 46, 11, 12, 48, 13, 50, 15, 16, 52, 17, 54, 19, 20, 56, 21, 22, 23, 24, 60, 25, 26, 62, 27, 64, 29, 30, 66, 31, 32, 68, 33, 34, 70, 35, 36, 72, 37, 74, 39, 40, 77, 41, 42, 79, 43, 44, 81, 45, 46, 83, 47, 48, 85, 50, 87, 51, 52, 89, 53, 54, 91, 55, 56, 93, 58, 95, 59, 60, 97, 61, 62, 99, 64, 101, 65, 66, 67, 68, 105, 69, 70, 107, 72, 109, 111, 75, 113, 77, 114, 78, 79, 116, 80, 118, 82, 120, 84, 122, 86, 87, 124, 88, 89, 126, 90, 91, 128, 92, 93, 130, 94, 95, 132, 97, 134, 98, 99, 136, 100, 138, 102, 140, 104, 105, 106, 107, 144, 108, 109, 146, 110, 111, 112, 113, 115, 116, 117, 118, 155, 119, 120, 157, 121, 122, 159, 123, 124, 161, 163, 127, 165, 129, 130, 167, 131, 132, 169, 133, 134, 171, 135, 136, 173, 137, 138, 175, 139, 140, 177, 141, 142, 143, 181, 145, 146, 183, 147, 148, 185, 149, 151, 189, 153, 190, 154, 155, 192, 156, 157, 194, 158, 159, 196, 160, 161, 198, 162, 163, 200, 164, 165, 202, 166, 167, 204, 168, 169, 206, 170, 171, 172, 173, 210, 174, 175, 212, 176, 177, 214, 178, 179, 216, 180, 218, 182, 183, 184, 185, 222, 186, 187, 224, 189, 226, 192, 229, 194, 231, 195, 196, 233, 197, 198, 235, 199, 200, 237, 201, 202, 239, 203, 204, 241, 205, 207, 208, 245, 209, 210, 247, 249, 213, 214, 251, 215, 216, 253, 217, 255, 220, 257, 221, 222, 223, 224, 225, 226, 263, 227, 265, 229, 266, 230, 231, 268, 232, 233, 270, 234, 235, 272, 236, 237, 274, 238, 239, 276, 240, 241, 278, 242, 243, 280, 244, 245, 282, 284, 248, 249, 286, 250, 251, 288, 253, 290, 255, 292, 256, 257, 294, 258, 259, 296, 260, 261, 298, 262, 263, 300, 264, 302, 268, 269, 270, 307, 271, 272, 309, 273, 274, 311, 275, 276, 313, 277, 278, 279, 280, 317, 282, 319, 283, 284, 321, 285, 286, 323, 288, 325, 289, 290, 327, 291, 329, 293, 294, 331, 296, 333, 297, 298, 299, 300, 337, 302, 339, 303, 341, 305, 342, 306, 344, 308, 309, 346, 348, 312, 313, 350, 314, 315, 352, 316, 317, 354, 318, 319, 356, 320, 358, 322, 323, 360, 324, 325, 362, 364, 329, 366, 330, 331, 332, 333, 370, 334, 372, 336, 337, 339, 376, 341, 378, 343, 344, 381, 346, 383, 347, 385, 349, 350, 387, 351, 352, 353, 354, 391, 355, 356, 393, 357, 358, 395, 359, 360, 397, 361, 362, 399, 363, 364, 401, 365, 366, 403, 367, 368, 405, 370, 371, 372, 409, 373, 374, 375, 376, 413, 377, 378, 415, 379, 417, 418, 382, 420, 384, 385, 422, 386, 424, 388, 426, 390, 391, 428, 393, 430, 394, 395, 432, 434, 398, 399, 436, 401, 402, 403, 404, 405, 442, 406, 407, 444, 408, 409, 446, 410, 411, 448, 412, 413, 450, 414, 452, 416, 454, 419, 457, 421, 459, 423, 424, 461, 425, 427, 428, 465, 429, 430, 467, 469, 434, 471, 435, 436, 473, 437, 438, 439, 440, 441, 479, 443, 444, 481, 446, 448, 485, 449, 450, 487, 451, 452, 489, 453, 491, 455, 493, 457, 494, 458, 459, 496, 461, 462, 463, 500, 464, 502, 466, 504, 468, 469, 506, 470, 508, 472, 473, 510, 474, 512, 476, 477, 514, 478, 516, 480, 481, 518, 482, 483, 484, 485, 486, 487, 524, 488, 489, 526, 490, 491, 528, 492, 493, 496, 497, 498, 535, 499, 500, 537, 501, 502, 539, 503, 504, 541, 505, 543, 508, 545, 509, 510, 547, 512, 549, 513, 551, 515, 516, 553, 517, 518, 555, 519, 520, 557, 521, 559, 523, 524, 561, 526, 563, 527, 528, 565, 529, 530, 567, 531, 569, 533, 570, 534, 535, 572, 536, 537, 574, 538, 576, 540, 541, 578, 542, 543, 580, 544, 545, 582, 546, 547, 584, 548, 549, 586, 550, 551, 552, 553, 590, 554, 555, 592, 556, 557, 558, 559, 596, 560, 561, 598, 562, 563, 600, 564, 602, 566, 567, 604, 568, 569, 606, 571, 572, 609, 573, 574, 611, 575, 576, 577, 578, 579, 580, 581, 582, 619, 583, 584, 621, 585, 586, 623, 587, 588, 625, 589, 590, 627, 592, 629, 594, 631, 595, 596, 597, 598, 635, 599, 600, 601, 602, 639, 603, 604, 605, 606, 643, 607, 645, 609, 646, 610, 611, 648, 612, 613, 650, 614, 615, 616, 617, 654, 618, 619, 620, 621, 658, 622, 623, 660, 625, 662, 627, 664, 628, 629, 666, 630, 668, 632, 633, 634, 672, 636, 637, 674, 638, 639, 676, 640, 641, 678, 643, 680, 644, 645, 682, 647, 648, 684, 649, 650, 686, 651, 652, 688, 653, 654, 690, 655, 692, 657, 658, 694, 659, 696, 661, 662, 698, 663, 700, 665, 666, 702, 667, 668, 704, 669, 670, 706, 671, 672, 708, 673, 674, 710, 675, 676, 712, 677, 679, 680, 716, 681, 682, 718, 683, 720, 685, 687, 688, 689, 690, 691, 693, 694, 696, 698, 699, 700, 701, 702, 703, 704, 705, 706, 707, 708, 709, 710, 711, 712, 713, 714, 715, 717, 719, 720, 1, 1, 3, 4, 5, 6, 7, 7, 9, 9, 10, 11, 11, 12, 13, 14, 15, 15, 16, 17, 18, 19, 19, 20, 21, 22, 23, 23, 24, 25, 25, 26, 27, 28, 29, 29, 30, 31, 31, 32, 33, 33, 34, 35, 35, 36, 37, 38, 39, 39, 40, 41, 41, 42, 43, 43, 44, 45, 45, 46, 47, 47, 49, 49, 50, 51, 51, 52, 53, 53, 54, 55, 55, 57, 57, 58, 59, 59, 60, 61, 61, 63, 63, 64, 65, 66, 67, 67, 68, 69, 69, 71, 71, 73, 74, 75, 76, 76, 77, 78, 78, 79, 80, 81, 82, 83, 84, 85, 86, 86, 87, 88, 88, 89, 90, 90, 91, 92, 92, 93, 94, 94, 96, 96, 97, 98, 98, 99, 100, 101, 102, 103, 104, 105, 106, 106, 107, 108, 108, 109, 110, 111, 112, 114, 115, 116, 117, 117, 118, 119, 119, 120, 121, 121, 122, 123, 123, 125, 126, 127, 128, 129, 129, 130, 131, 131, 132, 133, 133, 134, 135, 135, 136, 137, 137, 138, 139, 139, 140, 141, 142, 143, 144, 145, 145, 146, 147, 147, 148, 150, 151, 152, 152, 153, 154, 154, 155, 156, 156, 157, 158, 158, 159, 160, 160, 161, 162, 162, 163, 164, 164, 165, 166, 166, 167, 168, 168, 169, 170, 171, 172, 172, 173, 174, 174, 175, 176, 176, 177, 178, 178, 179, 180, 181, 182, 183, 184, 184, 185, 186, 186, 188, 188, 191, 191, 193, 193, 194, 195, 195, 196, 197, 197, 198, 199, 199, 200, 201, 201, 202, 203, 203, 204, 206, 207, 207, 208, 209, 209, 211, 212, 213, 213, 214, 215, 215, 216, 217, 219, 219, 220, 221, 222, 223, 224, 225, 225, 226, 227, 228, 228, 229, 230, 230, 231, 232, 232, 233, 234, 234, 235, 236, 236, 237, 238, 238, 239, 240, 240, 241, 242, 242, 243, 244, 244, 246, 247, 248, 248, 249, 250, 250, 252, 252, 254, 254, 255, 256, 256, 257, 258, 258, 259, 260, 260, 261, 262, 262, 263, 264, 267, 268, 269, 269, 270, 271, 271, 272, 273, 273, 274, 275, 275, 276, 277, 278, 279, 279, 281, 281, 282, 283, 283, 284, 285, 285, 287, 287, 288, 289, 289, 290, 291, 292, 293, 293, 295, 295, 296, 297, 298, 299, 299, 301, 301, 302, 303, 304, 304, 305, 306, 307, 308, 308, 310, 311, 312, 312, 313, 314, 314, 315, 316, 316, 317, 318, 318, 319, 320, 321, 322, 322, 323, 324, 324, 326, 328, 328, 329, 330, 331, 332, 332, 333, 334, 335, 336, 338, 338, 340, 340, 342, 343, 343, 345, 345, 346, 347, 348, 349, 349, 350, 351, 352, 353, 353, 354, 355, 355, 356, 357, 357, 358, 359, 359, 360, 361, 361, 362, 363, 363, 364, 365, 365, 366, 367, 367, 369, 370, 371, 371, 372, 373, 374, 375, 375, 376, 377, 377, 378, 379, 380, 381, 382, 383, 384, 384, 385, 386, 387, 388, 389, 390, 390, 392, 392, 393, 394, 394, 396, 397, 398, 398, 400, 401, 402, 403, 404, 404, 405, 406, 406, 407, 408, 408, 409, 410, 410, 411, 412, 412, 413, 414, 415, 416, 418, 419, 420, 421, 422, 423, 423, 424, 426, 427, 427, 428, 429, 429, 431, 433, 433, 434, 435, 435, 436, 437, 438, 439, 440, 441, 442, 443, 443, 445, 447, 447, 448, 449, 449, 450, 451, 451, 452, 453, 454, 455, 456, 456, 457, 458, 458, 460, 461, 462, 462, 463, 464, 465, 466, 467, 468, 468, 469, 470, 471, 472, 472, 473, 474, 475, 476, 476, 477, 478, 479, 480, 480, 481, 482, 483, 484, 485, 486, 486, 487, 488, 488, 489, 490, 490, 491, 492, 495, 496, 497, 497, 498, 499, 499, 500, 501, 501, 502, 503, 503, 504, 505, 507, 507, 508, 509, 509, 511, 511, 512, 513, 514, 515, 515, 516, 517, 517, 518, 519, 519, 520, 521, 522, 523, 523, 525, 525, 526, 527, 527, 528, 529, 529, 530, 531, 532, 532, 533, 534, 534, 535, 536, 536, 537, 538, 539, 540, 540, 541, 542, 542, 543, 544, 544, 545, 546, 546, 547, 548, 548, 549, 550, 551, 552, 552, 553, 554, 554, 555, 556, 557, 558, 558, 559, 560, 560, 561, 562, 562, 563, 564, 565, 566, 566, 567, 568, 568, 570, 571, 571, 572, 573, 573, 574, 575, 576, 577, 578, 579, 580, 581, 581, 582, 583, 583, 584, 585, 585, 586, 587, 587, 588, 589, 589, 591, 591, 593, 593, 594, 595, 596, 597, 597, 598, 599, 600, 601, 601, 602, 603, 604, 605, 605, 606, 607, 608, 608, 609, 610, 610, 611, 612, 612, 613, 614, 615, 616, 616, 617, 618, 619, 620, 620, 621, 622, 622, 624, 624, 626, 626, 627, 628, 628, 629, 630, 631, 632, 633, 634, 635, 636, 636, 637, 638, 638, 639, 640, 640, 642, 642, 643, 644, 644, 646, 647, 647, 648, 649, 649, 650, 651, 651, 652, 653, 653, 654, 655, 656, 657, 657, 658, 659, 660, 661, 661, 662, 663, 664, 665, 665, 666, 667, 667, 668, 669, 669, 670, 671, 671, 672, 673, 673, 674, 675, 675, 676, 678, 679, 679, 680, 681, 681, 682, 683, 684, 686, 687, 688, 689, 690, 692, 693, 695, 697, 698, 699, 700, 701, 702, 703, 704, 705, 706, 707, 708, 709, 710, 711, 712, 713, 714, 716, 718, 719];
L = [14, 10, 1, 15, 3, 13, 18, 13, 6, 17, 4, 9, 16, 3, 16, 17, 6, 14, 11, 6, 16, 5, 16, 2, 4, 12, 8, 6, 15, 10, 14, 18, 2, 6, 11, 3, 17, 16, 6, 6, 5, 10, 8, 18, 10, 13, 14, 15, 14, 19, 8, 1, 12, 13, 1, 12, 5, 10, 1, 4, 11, 19, 11, 8, 6, 4, 18, 6, 6, 11, 16, 13, 2, 2, 15, 3, 2, 14, 18, 15, 19, 5, 14, 7, 4, 1, 12, 7, 19, 5, 8, 12, 15, 16, 9, 14, 1, 14, 14, 10, 8, 2, 1, 10, 13, 18, 14, 16, 13, 19, 10, 17, 15, 6, 7, 5, 15, 16, 19, 13, 2, 18, 10, 12, 11, 11, 8, 10, 7, 3, 3, 12, 14, 18, 11, 16, 17, 10, 14, 1, 7, 1, 9, 1, 9, 11, 10, 8, 1, 19, 9, 11, 2, 6, 15, 11, 18, 16, 13, 19, 10, 1, 1, 7, 8, 17, 10, 2, 15, 9, 12, 8, 10, 10, 8, 6, 17, 1, 9, 4, 4, 5, 3, 14, 2, 17, 19, 3, 8, 4, 18, 9, 14, 15, 14, 12, 5, 1, 4, 12, 13, 10, 11, 6, 11, 2, 11, 1, 11, 7, 10, 9, 1, 16, 15, 7, 13, 9, 10, 9, 13, 14, 1, 12, 10, 8, 8, 3, 1, 13, 8, 5, 19, 3, 15, 9, 9, 17, 15, 12, 9, 9, 10, 7, 5, 5, 19, 6, 9, 10, 4, 14, 17, 1, 15, 8, 16, 10, 10, 1, 15, 9, 4, 11, 14, 13, 18, 7, 11, 7, 4, 7, 5, 2, 1, 7, 14, 5, 18, 5, 5, 1, 1, 12, 18, 5, 2, 1, 3, 15, 12, 13, 18, 16, 10, 1, 16, 1, 9, 15, 6, 1, 4, 7, 6, 16, 19, 6, 5, 9, 10, 7, 16, 18, 5, 4, 7, 17, 17, 1, 7, 2, 11, 3, 7, 13, 16, 8, 9, 2, 14, 14, 12, 8, 10, 19, 16, 11, 18, 18, 7, 1, 6, 13, 15, 3, 5, 8, 16, 13, 1, 17, 5, 2, 14, 15, 8, 5, 2, 19, 18, 1, 4, 6, 13, 18, 15, 10, 6, 11, 16, 14, 3, 12, 2, 19, 8, 5, 5, 16, 12, 13, 14, 8, 10, 17, 8, 3, 4, 1, 13, 18, 12, 2, 18, 1, 9, 16, 12, 14, 3, 17, 13, 1, 4, 10, 18, 5, 1, 2, 17, 1, 18, 12, 8, 2, 17, 6, 12, 17, 5, 16, 3, 11, 12, 15, 1, 4, 19, 10, 17, 13, 10, 11, 11, 7, 2, 8, 3, 17, 18, 6, 6, 17, 6, 8, 2, 11, 5, 17, 11, 15, 19, 9, 4, 18, 15, 13, 3, 13, 2, 15, 1, 15, 10, 5, 3, 13, 7, 1, 1, 13, 14, 11, 5, 2, 1, 9, 19, 2, 5, 16, 17, 12, 2, 13, 10, 7, 6, 17, 2, 5, 11, 8, 16, 8, 11, 12, 9, 18, 18, 12, 6, 4, 14, 18, 1, 14, 2, 13, 9, 14, 8, 5, 19, 12, 4, 4, 16, 3, 5, 8, 19, 16, 6, 2, 18, 5, 6, 11, 11, 14, 6, 1, 18, 16, 15, 14, 5, 18, 12, 2, 2, 3, 4, 18, 8, 16, 3, 11, 15, 16, 18, 4, 1, 2, 17, 10, 2, 13, 18, 1, 3, 12, 10, 13, 4, 15, 15, 8, 8, 4, 10, 8, 6, 10, 8, 1, 4, 15, 13, 2, 1, 5, 13, 11, 11, 2, 12, 14, 16, 6, 9, 16, 1, 9, 10, 1, 10, 12, 6, 2, 17, 12, 4, 3, 13, 15, 7, 17, 3, 16, 8, 12, 7, 1, 15, 10, 11, 5, 17, 9, 1, 14, 9, 9, 2, 17, 2, 6, 1, 12, 7, 9, 14, 16, 5, 10, 4, 8, 1, 4, 4, 11, 1, 11, 3, 7, 14, 11, 15, 10, 10, 16, 16, 6, 16, 3, 17, 9, 1, 1, 3, 13, 4, 4, 8, 16, 4, 18, 4, 15, 15, 10, 13, 3, 18, 15, 3, 4, 3, 5, 1, 6, 19, 18, 5, 8, 12, 7, 13, 9, 10, 12, 7, 9, 10, 16, 8, 3, 3, 2, 13, 13, 12, 7, 3, 15, 3, 16, 4, 5, 15, 1, 1, 8, 18, 3, 4, 2, 19, 16, 18, 1, 3, 6, 14, 1, 15, 12, 16, 16, 16, 18, 9, 6, 1, 2, 12, 18, 10, 10, 3, 12, 14, 10, 18, 1, 7, 1, 4, 10, 11, 5, 9, 19, 14, 3, 19, 18, 19, 8, 5, 13, 19, 1, 9, 14, 12, 16, 5, 13, 16, 5, 16, 17, 5, 1, 3, 8, 11, 11, 6, 18, 6, 5, 7, 1, 1, 1, 17, 12, 4, 2, 4, 14, 10, 7, 14, 4, 19, 1, 11, 12, 12, 14, 14, 11, 16, 10, 6, 11, 13, 14, 13, 18, 18, 2, 9, 16, 6, 7, 12, 9, 3, 7, 15, 6, 12, 1, 6, 7, 1, 5, 14, 17, 14, 10, 19, 9, 9, 17, 12, 13, 7, 2, 8, 3, 14, 13, 16, 1, 14, 7, 9, 16, 18, 3, 5, 3, 16, 9, 13, 14, 16, 14, 11, 11, 15, 6, 10, 2, 16, 17, 9, 15, 1, 7, 9, 12, 2, 13, 12, 3, 5, 1, 4, 14, 7, 13, 14, 10, 1, 15, 3, 13, 18, 13, 6, 17, 4, 9, 16, 3, 16, 17, 6, 14, 11, 6, 16, 5, 16, 2, 4, 12, 8, 6, 15, 10, 14, 18, 2, 6, 11, 3, 17, 16, 6, 6, 5, 10, 8, 18, 10, 13, 14, 15, 14, 19, 8, 1, 12, 13, 1, 12, 5, 10, 1, 4, 11, 19, 11, 8, 6, 4, 18, 6, 6, 11, 16, 13, 2, 2, 15, 3, 2, 14, 18, 15, 19, 5, 14, 7, 4, 1, 12, 7, 19, 5, 8, 12, 15, 16, 9, 14, 1, 14, 14, 10, 8, 2, 1, 10, 13, 18, 14, 16, 13, 19, 10, 17, 15, 6, 7, 5, 15, 16, 19, 13, 2, 18, 10, 12, 11, 11, 8, 10, 7, 3, 3, 12, 14, 18, 11, 16, 17, 10, 14, 1, 7, 1, 9, 1, 9, 11, 10, 8, 1, 19, 9, 11, 2, 6, 15, 11, 18, 16, 13, 19, 10, 1, 1, 7, 8, 17, 10, 2, 15, 9, 12, 8, 10, 10, 8, 6, 17, 1, 9, 4, 4, 5, 3, 14, 2, 17, 19, 3, 8, 4, 18, 9, 14, 15, 14, 12, 5, 1, 4, 12, 13, 10, 11, 6, 11, 2, 11, 1, 11, 7, 10, 9, 1, 16, 15, 7, 13, 9, 10, 9, 13, 14, 1, 12, 10, 8, 8, 3, 1, 13, 8, 5, 19, 3, 15, 9, 9, 17, 15, 12, 9, 9, 10, 7, 5, 5, 19, 6, 9, 10, 4, 14, 17, 1, 15, 8, 16, 10, 10, 1, 15, 9, 4, 11, 14, 13, 18, 7, 11, 7, 4, 7, 5, 2, 1, 7, 14, 5, 18, 5, 5, 1, 1, 12, 18, 5, 2, 1, 3, 15, 12, 13, 18, 16, 10, 1, 16, 1, 9, 15, 6, 1, 4, 7, 6, 16, 19, 6, 5, 9, 10, 7, 16, 18, 5, 4, 7, 17, 17, 1, 7, 2, 11, 3, 7, 13, 16, 8, 9, 2, 14, 14, 12, 8, 10, 19, 16, 11, 18, 18, 7, 1, 6, 13, 15, 3, 5, 8, 16, 13, 1, 17, 5, 2, 14, 15, 8, 5, 2, 19, 18, 1, 4, 6, 13, 18, 15, 10, 6, 11, 16, 14, 3, 12, 2, 19, 8, 5, 5, 16, 12, 13, 14, 8, 10, 17, 8, 3, 4, 1, 13, 18, 12, 2, 18, 1, 9, 16, 12, 14, 3, 17, 13, 1, 4, 10, 18, 5, 1, 2, 17, 1, 18, 12, 8, 2, 17, 6, 12, 17, 5, 16, 3, 11, 12, 15, 1, 4, 19, 10, 17, 13, 10, 11, 11, 7, 2, 8, 3, 17, 18, 6, 6, 17, 6, 8, 2, 11, 5, 17, 11, 15, 19, 9, 4, 18, 15, 13, 3, 13, 2, 15, 1, 15, 10, 5, 3, 13, 7, 1, 1, 13, 14, 11, 5, 2, 1, 9, 19, 2, 5, 16, 17, 12, 2, 13, 10, 7, 6, 17, 2, 5, 11, 8, 16, 8, 11, 12, 9, 18, 18, 12, 6, 4, 14, 18, 1, 14, 2, 13, 9, 14, 8, 5, 19, 12, 4, 4, 16, 3, 5, 8, 19, 16, 6, 2, 18, 5, 6, 11, 11, 14, 6, 1, 18, 16, 15, 14, 5, 18, 12, 2, 2, 3, 4, 18, 8, 16, 3, 11, 15, 16, 18, 4, 1, 2, 17, 10, 2, 13, 18, 1, 3, 12, 10, 13, 4, 15, 15, 8, 8, 4, 10, 8, 6, 10, 8, 1, 4, 15, 13, 2, 1, 5, 13, 11, 11, 2, 12, 14, 16, 6, 9, 16, 1, 9, 10, 1, 10, 12, 6, 2, 17, 12, 4, 3, 13, 15, 7, 17, 3, 16, 8, 12, 7, 1, 15, 10, 11, 5, 17, 9, 1, 14, 9, 9, 2, 17, 2, 6, 1, 12, 7, 9, 14, 16, 5, 10, 4, 8, 1, 4, 4, 11, 1, 11, 3, 7, 14, 11, 15, 10, 10, 16, 16, 6, 16, 3, 17, 9, 1, 1, 3, 13, 4, 4, 8, 16, 4, 18, 4, 15, 15, 10, 13, 3, 18, 15, 3, 4, 3, 5, 1, 6, 19, 18, 5, 8, 12, 7, 13, 9, 10, 12, 7, 9, 10, 16, 8, 3, 3, 2, 13, 13, 12, 7, 3, 15, 3, 16, 4, 5, 15, 1, 1, 8, 18, 3, 4, 2, 19, 16, 18, 1, 3, 6, 14, 1, 15, 12, 16, 16, 16, 18, 9, 6, 1, 2, 12, 18, 10, 10, 3, 12, 14, 10, 18, 1, 7, 1, 4, 10, 11, 5, 9, 19, 14, 3, 19, 18, 19, 8, 5, 13, 19, 1, 9, 14, 12, 16, 5, 13, 16, 5, 16, 17, 5, 1, 3, 8, 11, 11, 6, 18, 6, 5, 7, 1, 1, 1, 17, 12, 4, 2, 4, 14, 10, 7, 14, 4, 19, 1, 11, 12, 12, 14, 14, 11, 16, 10, 6, 11, 13, 14, 13, 18, 18, 2, 9, 16, 6, 7, 12, 9, 3, 7, 15, 6, 12, 1, 6, 7, 1, 5, 14, 17, 14, 10, 19, 9, 9, 17, 12, 13, 7, 2, 8, 3, 14, 13, 16, 1, 14, 7, 9, 16, 18, 3, 5, 3, 16, 9, 13, 14, 16, 14, 11, 11, 15, 6, 10, 2, 16, 17, 9, 15, 1, 7, 9, 12, 2, 13, 12, 3, 5, 1, 4, 14, 7, 13];
T = [11, 12, 1, 24, 10, 21, 18, 16, 3, 9, 8, 2, 11, 6, 17, 20, 3, 19, 8, 4, 15, 11, 20, 1, 11, 11, 9, 6, 11, 16, 12, 16, 1, 7, 12, 1, 25, 22, 13, 15, 1, 10, 16, 13, 19, 10, 7, 22, 11, 12, 1, 9, 12, 11, 4, 13, 1, 12, 2, 2, 15, 20, 4, 8, 13, 1, 24, 1, 4, 7, 14, 9, 1, 1, 11, 3, 4, 22, 24, 16, 14, 3, 19, 1, 1, 1, 11, 14, 20, 4, 4, 15, 13, 18, 7, 21, 1, 11, 14, 10, 14, 1, 1, 5, 15, 14, 20, 20, 8, 22, 14, 10, 19, 3, 21, 1, 10, 13, 21, 14, 1, 20, 2, 4, 16, 6, 6, 12, 7, 2, 2, 15, 12, 19, 6, 12, 21, 13, 8, 9, 10, 1, 13, 7, 4, 21, 13, 8, 4, 14, 1, 4, 5, 5, 10, 19, 27, 16, 11, 15, 3, 1, 1, 10, 12, 12, 9, 9, 1, 8, 9, 1, 11, 19, 4, 7, 24, 1, 4, 5, 1, 1, 1, 21, 6, 15, 17, 3, 12, 1, 17, 10, 20, 18, 6, 15, 1, 1, 2, 11, 23, 7, 14, 8, 8, 7, 8, 1, 6, 6, 1, 10, 5, 18, 19, 7, 23, 11, 8, 16, 25, 10, 2, 4, 16, 6, 1, 3, 3, 23, 12, 20, 24, 1, 22, 11, 5, 10, 5, 14, 16, 4, 4, 11, 10, 6, 18, 1, 5, 1, 1, 19, 12, 1, 21, 10, 13, 6, 9, 2, 16, 12, 7, 13, 14, 18, 12, 14, 12, 8, 1, 5, 3, 1, 3, 14, 13, 9, 11, 4, 9, 1, 1, 6, 18, 1, 6, 1, 1, 14, 3, 7, 25, 11, 1, 1, 11, 3, 8, 18, 3, 1, 3, 7, 4, 11, 19, 9, 4, 4, 7, 2, 14, 11, 7, 6, 13, 13, 8, 1, 4, 8, 8, 2, 2, 15, 15, 1, 1, 1, 21, 6, 12, 5, 7, 10, 23, 13, 10, 23, 9, 1, 9, 18, 14, 4, 13, 9, 11, 18, 1, 11, 1, 2, 21, 17, 18, 1, 1, 24, 22, 1, 4, 2, 3, 19, 17, 13, 9, 3, 18, 7, 4, 18, 1, 18, 11, 1, 7, 17, 16, 6, 15, 4, 2, 10, 3, 9, 12, 3, 8, 11, 9, 10, 21, 3, 13, 19, 15, 12, 2, 17, 18, 5, 6, 5, 17, 4, 1, 10, 14, 1, 15, 11, 11, 6, 16, 4, 17, 12, 2, 14, 3, 13, 12, 10, 1, 3, 20, 6, 22, 17, 8, 10, 4, 18, 4, 3, 7, 19, 22, 8, 9, 16, 16, 9, 7, 16, 5, 18, 8, 9, 19, 8, 9, 15, 20, 7, 7, 6, 1, 6, 1, 15, 5, 1, 4, 12, 14, 1, 1, 7, 4, 9, 3, 2, 1, 10, 23, 1, 9, 13, 11, 7, 1, 8, 16, 8, 13, 16, 1, 1, 19, 8, 12, 11, 7, 17, 21, 14, 26, 13, 1, 8, 9, 23, 1, 8, 1, 11, 6, 3, 13, 3, 15, 14, 1, 1, 9, 1, 5, 9, 17, 18, 4, 6, 6, 1, 6, 12, 18, 11, 10, 1, 10, 8, 21, 11, 10, 17, 6, 1, 1, 7, 1, 15, 4, 22, 4, 7, 17, 12, 10, 4, 1, 1, 11, 10, 3, 14, 20, 1, 9, 16, 14, 10, 1, 17, 11, 8, 10, 1, 8, 10, 6, 22, 5, 1, 7, 12, 9, 5, 1, 1, 17, 11, 18, 2, 7, 8, 17, 9, 7, 20, 2, 3, 10, 1, 9, 5, 3, 2, 24, 11, 3, 5, 5, 19, 9, 9, 5, 15, 15, 15, 7, 3, 19, 4, 7, 1, 13, 5, 1, 24, 7, 11, 1, 19, 1, 3, 5, 11, 7, 5, 12, 24, 3, 2, 1, 15, 1, 5, 7, 10, 13, 9, 2, 6, 19, 13, 14, 11, 8, 12, 13, 12, 12, 3, 33, 10, 5, 2, 1, 9, 7, 3, 10, 16, 1, 13, 1, 8, 12, 9, 17, 3, 20, 15, 9, 9, 1, 10, 1, 1, 6, 12, 10, 1, 14, 8, 17, 4, 6, 8, 10, 16, 12, 11, 3, 1, 9, 1, 16, 13, 12, 5, 6, 18, 3, 7, 9, 5, 16, 1, 2, 15, 22, 11, 1, 5, 18, 14, 14, 1, 5, 6, 8, 2, 10, 12, 20, 12, 15, 13, 15, 7, 1, 1, 15, 16, 18, 6, 7, 6, 22, 14, 22, 1, 1, 1, 1, 7, 5, 1, 4, 18, 9, 4, 17, 12, 17, 10, 1, 11, 19, 2, 12, 10, 6, 16, 7, 20, 13, 8, 13, 25, 1, 1, 7, 3, 5, 18, 10, 14, 1, 5, 9, 1, 1, 1, 12, 17, 1, 1, 7, 23, 16, 5, 8, 10, 20, 1, 19, 12, 16, 10, 14, 8, 22, 11, 6, 9, 12, 18, 13, 17, 15, 1, 9, 16, 12, 4, 5, 13, 3, 2, 12, 6, 10, 1, 4, 11, 1, 11, 23, 20, 13, 6, 15, 7, 6, 13, 10, 20, 8, 1, 3, 8, 15, 21, 24, 1, 20, 2, 17, 20, 15, 7, 2, 2, 9, 3, 10, 23, 13, 6, 15, 9, 18, 13, 13, 1, 15, 15, 5, 17, 1, 10, 3, 17, 5, 10, 2, 1, 13, 1, 9, 13, 1, 20, 11, 12, 1, 24, 10, 21, 18, 16, 3, 9, 8, 2, 11, 6, 17, 20, 3, 19, 8, 4, 15, 11, 20, 1, 11, 11, 9, 6, 11, 16, 12, 16, 1, 7, 12, 1, 25, 22, 13, 15, 1, 10, 16, 13, 19, 10, 7, 22, 11, 12, 1, 9, 12, 11, 4, 13, 1, 12, 2, 2, 15, 20, 4, 8, 13, 1, 24, 1, 4, 7, 14, 9, 1, 1, 11, 3, 4, 22, 24, 16, 14, 3, 19, 1, 1, 1, 11, 14, 20, 4, 4, 15, 13, 18, 7, 21, 1, 11, 14, 10, 14, 1, 1, 5, 15, 14, 20, 20, 8, 22, 14, 10, 19, 3, 21, 1, 10, 13, 21, 14, 1, 20, 2, 4, 16, 6, 6, 12, 7, 2, 2, 15, 12, 19, 6, 12, 21, 13, 8, 9, 10, 1, 13, 7, 4, 21, 13, 8, 4, 14, 1, 4, 5, 5, 10, 19, 27, 16, 11, 15, 3, 1, 1, 10, 12, 12, 9, 9, 1, 8, 9, 1, 11, 19, 4, 7, 24, 1, 4, 5, 1, 1, 1, 21, 6, 15, 17, 3, 12, 1, 17, 10, 20, 18, 6, 15, 1, 1, 2, 11, 23, 7, 14, 8, 8, 7, 8, 1, 6, 6, 1, 10, 5, 18, 19, 7, 23, 11, 8, 16, 25, 10, 2, 4, 16, 6, 1, 3, 3, 23, 12, 20, 24, 1, 22, 11, 5, 10, 5, 14, 16, 4, 4, 11, 10, 6, 18, 1, 5, 1, 1, 19, 12, 1, 21, 10, 13, 6, 9, 2, 16, 12, 7, 13, 14, 18, 12, 14, 12, 8, 1, 5, 3, 1, 3, 14, 13, 9, 11, 4, 9, 1, 1, 6, 18, 1, 6, 1, 1, 14, 3, 7, 25, 11, 1, 1, 11, 3, 8, 18, 3, 1, 3, 7, 4, 11, 19, 9, 4, 4, 7, 2, 14, 11, 7, 6, 13, 13, 8, 1, 4, 8, 8, 2, 2, 15, 15, 1, 1, 1, 21, 6, 12, 5, 7, 10, 23, 13, 10, 23, 9, 1, 9, 18, 14, 4, 13, 9, 11, 18, 1, 11, 1, 2, 21, 17, 18, 1, 1, 24, 22, 1, 4, 2, 3, 19, 17, 13, 9, 3, 18, 7, 4, 18, 1, 18, 11, 1, 7, 17, 16, 6, 15, 4, 2, 10, 3, 9, 12, 3, 8, 11, 9, 10, 21, 3, 13, 19, 15, 12, 2, 17, 18, 5, 6, 5, 17, 4, 1, 10, 14, 1, 15, 11, 11, 6, 16, 4, 17, 12, 2, 14, 3, 13, 12, 10, 1, 3, 20, 6, 22, 17, 8, 10, 4, 18, 4, 3, 7, 19, 22, 8, 9, 16, 16, 9, 7, 16, 5, 18, 8, 9, 19, 8, 9, 15, 20, 7, 7, 6, 1, 6, 1, 15, 5, 1, 4, 12, 14, 1, 1, 7, 4, 9, 3, 2, 1, 10, 23, 1, 9, 13, 11, 7, 1, 8, 16, 8, 13, 16, 1, 1, 19, 8, 12, 11, 7, 17, 21, 14, 26, 13, 1, 8, 9, 23, 1, 8, 1, 11, 6, 3, 13, 3, 15, 14, 1, 1, 9, 1, 5, 9, 17, 18, 4, 6, 6, 1, 6, 12, 18, 11, 10, 1, 10, 8, 21, 11, 10, 17, 6, 1, 1, 7, 1, 15, 4, 22, 4, 7, 17, 12, 10, 4, 1, 1, 11, 10, 3, 14, 20, 1, 9, 16, 14, 10, 1, 17, 11, 8, 10, 1, 8, 10, 6, 22, 5, 1, 7, 12, 9, 5, 1, 1, 17, 11, 18, 2, 7, 8, 17, 9, 7, 20, 2, 3, 10, 1, 9, 5, 3, 2, 24, 11, 3, 5, 5, 19, 9, 9, 5, 15, 15, 15, 7, 3, 19, 4, 7, 1, 13, 5, 1, 24, 7, 11, 1, 19, 1, 3, 5, 11, 7, 5, 12, 24, 3, 2, 1, 15, 1, 5, 7, 10, 13, 9, 2, 6, 19, 13, 14, 11, 8, 12, 13, 12, 12, 3, 33, 10, 5, 2, 1, 9, 7, 3, 10, 16, 1, 13, 1, 8, 12, 9, 17, 3, 20, 15, 9, 9, 1, 10, 1, 1, 6, 12, 10, 1, 14, 8, 17, 4, 6, 8, 10, 16, 12, 11, 3, 1, 9, 1, 16, 13, 12, 5, 6, 18, 3, 7, 9, 5, 16, 1, 2, 15, 22, 11, 1, 5, 18, 14, 14, 1, 5, 6, 8, 2, 10, 12, 20, 12, 15, 13, 15, 7, 1, 1, 15, 16, 18, 6, 7, 6, 22, 14, 22, 1, 1, 1, 1, 7, 5, 1, 4, 18, 9, 4, 17, 12, 17, 10, 1, 11, 19, 2, 12, 10, 6, 16, 7, 20, 13, 8, 13, 25, 1, 1, 7, 3, 5, 18, 10, 14, 1, 5, 9, 1, 1, 1, 12, 17, 1, 1, 7, 23, 16, 5, 8, 10, 20, 1, 19, 12, 16, 10, 14, 8, 22, 11, 6, 9, 12, 18, 13, 17, 15, 1, 9, 16, 12, 4, 5, 13, 3, 2, 12, 6, 10, 1, 4, 11, 1, 11, 23, 20, 13, 6, 15, 7, 6, 13, 10, 20, 8, 1, 3, 8, 15, 21, 24, 1, 20, 2, 17, 20, 15, 7, 2, 2, 9, 3, 10, 23, 13, 6, 15, 9, 18, 13, 13, 1, 15, 15, 5, 17, 1, 10, 3, 17, 5, 10, 2, 1, 13, 1, 9, 13, 1, 20];
Lower_Bound = [0, 11, 90, 89, 65, 107, 86, 104, 92, 95, 103, 105, 111, 181, 161, 159, 151, 205, 190, 201, 202, 213, 202, 211, 222, 238, 249, 258, 251, 263, 275, 297, 296, 297, 313, 326, 336, 12, 34, 45, 46, 55, 66, 70, 71, 83, 85, 100, 132, 128, 141, 142, 143, 147, 161, 170, 188, 189, 192, 196, 217, 233, 245, 248, 249, 250, 251, 262, 282, 286, 317, 332, 341, 343, 350, 47, 46, 60, 58, 59, 79, 84, 73, 87, 105, 125, 133, 147, 141, 138, 150, 156, 162, 176, 177, 179, 181, 197, 203, 212, 226, 224, 292, 277, 265, 275, 281, 291, 304, 313, 323, 324, 337, 58, 65, 69, 73, 60, 64, 78, 82, 87, 97, 116, 134, 144, 133, 137, 134, 135, 145, 157, 166, 175, 183, 192, 194, 205, 198, 222, 226, 231, 232, 263, 262, 283, 275, 292, 304, 318, 317, 101, 91, 73, 67, 66, 65, 76, 87, 101, 109, 116, 118, 112, 118, 128, 133, 152, 157, 168, 167, 183, 184, 186, 190, 196, 197, 200, 223, 243, 233, 234, 256, 267, 272, 277, 291, 296, 300, 121, 99, 88, 74, 68, 69, 74, 75, 94, 95, 116, 105, 111, 113, 129, 136, 175, 178, 192, 204, 193, 213, 202, 203, 199, 200, 203, 216, 267, 245, 256, 265, 266, 267, 273, 291, 292, 293, 118, 104, 97, 72, 71, 70, 73, 81, 84, 85, 92, 96, 115, 124, 128, 135, 149, 160, 185, 205, 192, 205, 206, 206, 222, 214, 227, 225, 240, 241, 242, 263, 275, 280, 290, 297, 307, 294, 121, 101, 92, 91, 82, 95, 91, 98, 87, 88, 99, 101, 119, 136, 130, 157, 156, 178, 179, 181, 184, 231, 214, 223, 224, 231, 242, 242, 241, 259, 248, 255, 272, 288, 294, 327, 330, 340, 308, 299, 296, 109, 117, 108, 168, 105, 102, 89, 104, 116, 133, 137, 143, 148, 152, 182, 181, 195, 210, 221, 234, 241, 239, 235, 252, 260, 262, 260, 273, 314, 304, 303, 322, 325, 335, 341, 297, 280, 288, 131, 127, 131, 147, 140, 121, 115, 106, 122, 138, 145, 160, 161, 153, 172, 180, 195, 215, 222, 228, 234, 235, 240, 241, 277, 265, 278, 279, 286, 290, 299, 302, 303, 313, 314, 268, 270, 259, 143, 142, 134, 142, 162, 170, 151, 150, 131, 162, 150, 157, 170, 230, 181, 207, 202, 231, 223, 232, 249, 250, 244, 255, 261, 274, 277, 291, 292, 301, 301, 310, 326, 344, 323, 255, 249, 252, 251, 158, 170, 155, 165, 169, 168, 158, 179, 173, 220, 178, 222, 216, 215, 208, 223, 227, 249, 253, 260, 251, 263, 258, 290, 289, 293, 292, 302, 305, 325, 326, 342, 348, 358, 260, 243, 235, 245, 189, 181, 191, 197, 202, 176, 183, 189, 198, 203, 204, 223, 234, 216, 223, 311, 294, 303, 286, 277, 277, 267, 276, 281, 284, 286, 310, 316, 321, 326, 335, 344, 359, 359, 271, 249, 234, 227, 224, 220, 213, 208, 203, 202, 195, 196, 199, 222, 221, 226, 236, 236, 231, 254, 287, 285, 284, 283, 278, 288, 301, 303, 345, 326, 313, 344, 340, 352, 340, 352, 355, 365, 260, 262, 253, 246, 237, 221, 234, 209, 217, 213, 218, 215, 230, 225, 226, 233, 234, 240, 250, 251, 265, 273, 277, 283, 293, 297, 309, 309, 310, 319, 325, 336, 331, 364, 354, 357, 366, 370, 259, 258, 256, 249, 238, 243, 235, 240, 226, 227, 232, 238, 239, 239, 227, 239, 246, 261, 268, 269, 282, 301, 285, 355, 348, 326, 312, 312, 311, 312, 313, 320, 325, 329, 347, 356, 360, 372, 283, 273, 269, 250, 262, 272, 288, 295, 291, 278, 265, 240, 241, 242, 245, 250, 272, 262, 286, 285, 294, 295, 296, 361, 354, 353, 352, 313, 336, 339, 331, 321, 322, 341, 366, 373, 387, 389, 284, 277, 271, 283, 268, 285, 300, 302, 286, 282, 264, 251, 248, 260, 263, 273, 274, 285, 291, 302, 295, 308, 308, 315, 321, 331, 345, 344, 341, 356, 351, 352, 334, 354, 356, 376, 391, 393, 286, 295, 296, 296, 286, 309, 314, 320, 277, 262, 253, 284, 266, 290, 277, 287, 286, 301, 316, 321, 323, 324, 328, 331, 339, 344, 352, 354, 355, 368, 369, 378, 371, 384, 383, 384, 395];
Upper_Bound = [0, 11, 90, 89, 65, 107, 86, 104, 92, 95, 103, 105, 111, 181, 161, 159, 151, 205, 190, 201, 202, 213, 202, 211, 222, 238, 249, 258, 251, 263, 275, 297, 296, 297, 313, 326, 336, 12, 34, 45, 46, 55, 66, 70, 71, 83, 85, 100, 132, 128, 141, 142, 143, 147, 161, 170, 188, 189, 192, 196, 217, 233, 245, 248, 249, 250, 251, 262, 282, 286, 317, 332, 341, 343, 350, 47, 46, 60, 58, 59, 79, 84, 73, 87, 105, 125, 133, 147, 141, 138, 150, 156, 162, 176, 177, 179, 181, 197, 203, 212, 226, 224, 292, 277, 265, 275, 281, 291, 304, 313, 323, 324, 337, 58, 65, 69, 73, 60, 64, 78, 82, 87, 97, 116, 134, 144, 133, 137, 134, 135, 145, 157, 166, 175, 183, 192, 194, 205, 198, 222, 226, 231, 232, 263, 262, 283, 275, 292, 304, 318, 317, 101, 91, 73, 67, 66, 65, 76, 87, 101, 109, 116, 118, 112, 118, 128, 133, 152, 157, 168, 167, 183, 184, 186, 190, 196, 197, 200, 223, 243, 233, 234, 256, 267, 272, 277, 291, 296, 300, 121, 99, 88, 74, 68, 69, 74, 75, 94, 95, 116, 105, 111, 113, 129, 136, 175, 178, 192, 204, 193, 213, 202, 203, 199, 200, 203, 216, 267, 245, 256, 265, 266, 267, 273, 291, 292, 293, 118, 104, 97, 72, 71, 70, 73, 81, 84, 85, 92, 96, 115, 124, 128, 135, 149, 160, 185, 205, 192, 205, 206, 206, 222, 214, 227, 225, 240, 241, 242, 263, 275, 280, 290, 297, 307, 294, 121, 101, 92, 91, 82, 95, 91, 98, 87, 88, 99, 101, 119, 136, 130, 157, 156, 178, 179, 181, 184, 231, 214, 223, 224, 231, 242, 242, 241, 259, 248, 255, 272, 288, 294, 327, 330, 340, 308, 299, 296, 109, 117, 108, 168, 105, 102, 89, 104, 116, 133, 137, 143, 148, 152, 182, 181, 195, 210, 221, 234, 241, 239, 235, 252, 260, 262, 260, 273, 314, 304, 303, 322, 325, 335, 341, 297, 280, 288, 131, 127, 131, 147, 140, 121, 115, 106, 122, 138, 145, 160, 161, 153, 172, 180, 195, 215, 222, 228, 234, 235, 240, 241, 277, 265, 278, 279, 286, 290, 299, 302, 303, 313, 314, 268, 270, 259, 143, 142, 134, 142, 162, 170, 151, 150, 131, 162, 150, 157, 170, 230, 181, 207, 202, 231, 223, 232, 249, 250, 244, 255, 261, 274, 277, 291, 292, 301, 301, 310, 326, 344, 323, 255, 249, 252, 251, 158, 170, 155, 165, 169, 168, 158, 179, 173, 220, 178, 222, 216, 215, 208, 223, 227, 249, 253, 260, 251, 263, 258, 290, 289, 293, 292, 302, 305, 325, 326, 342, 348, 358, 260, 243, 235, 245, 189, 181, 191, 197, 202, 176, 183, 189, 198, 203, 204, 223, 234, 216, 223, 311, 294, 303, 286, 277, 277, 267, 276, 281, 284, 286, 310, 316, 321, 326, 335, 344, 359, 359, 271, 249, 234, 227, 224, 220, 213, 208, 203, 202, 195, 196, 199, 222, 221, 226, 236, 236, 231, 254, 287, 285, 284, 283, 278, 288, 301, 303, 345, 326, 313, 344, 340, 352, 340, 352, 355, 365, 260, 262, 253, 246, 237, 221, 234, 209, 217, 213, 218, 215, 230, 225, 226, 233, 234, 240, 250, 251, 265, 273, 277, 283, 293, 297, 309, 309, 310, 319, 325, 336, 331, 364, 354, 357, 366, 370, 259, 258, 256, 249, 238, 243, 235, 240, 226, 227, 232, 238, 239, 239, 227, 239, 246, 261, 268, 269, 282, 301, 285, 355, 348, 326, 312, 312, 311, 312, 313, 320, 325, 329, 347, 356, 360, 372, 283, 273, 269, 250, 262, 272, 288, 295, 291, 278, 265, 240, 241, 242, 245, 250, 272, 262, 286, 285, 294, 295, 296, 361, 354, 353, 352, 313, 336, 339, 331, 321, 322, 341, 366, 373, 387, 389, 284, 277, 271, 283, 268, 285, 300, 302, 286, 282, 264, 251, 248, 260, 263, 273, 274, 285, 291, 302, 295, 308, 308, 315, 321, 331, 345, 344, 341, 356, 351, 352, 334, 354, 356, 376, 391, 393, 286, 295, 296, 296, 286, 309, 314, 320, 277, 262, 253, 284, 266, 290, 277, 287, 286, 301, 316, 321, 323, 324, 328, 331, 339, 344, 352, 354, 355, 368, 369, 378, 371, 384, 383, 384, 395];
Start = 1;
End = 720;
Time = 395;
